53
42 32 365
32 9 501
9 8 83
8 7 183
7 40 64
40 18 92
18 44 75
44 2 220
2 16 217
16 20 253
20 41 290
41 6 76
6 1 45
1 52 187
52 29 480
29 28 260
28 15 201
15 49 130
49 19 35
19 22 94
22 30 152
30 17 80
17 21 116
21 31 97
31 48 50
48 43 157
43 33 80
33 34 21
34 35 15
35 38 43
38 37 76
37 14 61
14 4 25
4 36 87
36 39 41
39 5 120
5 27 452
27 25 159
25 46 186
46 26 292
26 12 185
12 13 206
13 51 319
51 10 399
10 50 285
50 11 188
11 3 294
3 45 231
45 24 173
24 47 148
47 23 16
23 42 298

